Route #1: 394 377 212 758 323 655 313 
Route #2: 854 927 68 516 625 729 796 866 
Route #3: 667 51 254 703 449 144 800 281 819 214 
Route #4: 971 277 176 914 761 126 842 260 53 632 634 
Route #5: 14 61 845 101 173 82 106 610 247 
Route #6: 650 613 921 686 941 894 108 201 
Route #7: 486 802 695 589 537 621 297 218 267 320 706 
Route #8: 110 541 487 559 743 141 911 877 970 
Route #9: 916 787 463 116 70 322 319 89 257 
Route #10: 21 928 93 967 986 485 223 635 694 65 
Route #11: 74 142 713 540 283 712 278 407 
Route #12: 751 790 28 618 943 656 306 799 445 626 
Route #13: 893 384 607 630 501 253 704 459 
Route #14: 527 697 775 299 235 455 461 753 687 478 
Route #15: 122 547 148 264 915 517 651 762 302 718 411 
Route #16: 726 213 932 532 489 117 26 721 898 844 
Distance: 35582
Prizes: 48110
